; This is obtained from a ackermann function termination benchmark.
(set-logic HORN)
(declare-fun X1 (Int Int Int Int Int) Bool)
(declare-fun X2 (Int Int Int Int) Bool)
(declare-fun X3 (Int Int Int Int Int) Bool)
(declare-fun X18 (Int Int Int Int Int) Bool)
(declare-fun X32 (Int Int Int Int Int Int Int) Bool)
(declare-fun X72 (Int Int Int Int Int Int) Bool)
(declare-fun X115 (Int Int Int Int Int) Bool)
(declare-fun X146 () Bool)
(declare-fun X147 (Int) Bool)
(declare-fun X148 (Int Int) Bool)
(declare-fun X153 (Int Int Int) Bool)
(declare-fun X154 (Int Int Int Int) Bool)
(declare-fun X182 (Int Int Int Int) Bool)
(declare-fun X183 (Int Int Int Int) Bool)
(declare-fun X184 (Int Int Int Int Int) Bool)
(declare-fun X185 (Int Int Int Int Int) Bool)
(declare-fun X186 (Int Int Int Int Int Int) Bool)
(declare-fun X187 (Int Int Int Int) Bool)
(declare-fun X188 (Int Int Int Int Int Int) Bool)
(declare-fun X189 (Int Int Int Int Int Int Int) Bool)
(declare-fun X190 (Int Int Int Int Int) Bool)
(assert (forall ((x95 Int)(x96 Int)(x97 Int)(x98 Int)) (=> (<=  x95 0) (X2  x98 x97 x96 x95))))
(assert (forall ((x95 Int)(x96 Int)(x97 Int)(x98 Int)) (=> (<=  x96 0) (X2  x98 x97 x96 x95))))
(assert (forall ((x95 Int)(x96 Int)(x97 Int)(x98 Int)) (=> (and (=  x97 0) (X3  (+  x98 1) x98 x97 x96 x95)) (X2  x98 x97 x96 x95))))
(assert (forall ((r2p12 Int)(x95 Int)(x96 Int)(x97 Int)(x98 Int)) (=> (and (not (=  x97 0)) (and (=  x98 0) (and (X183  x98 x97 x96 x95) (X115  r2p12 x98 x97 x96 x95)))) (X2  x98 x97 x96 x95))))
(assert (forall ((r2p15 Int)(x95 Int)(x96 Int)(x97 Int)(x98 Int)) (=> (and (not (=  x97 0)) (and (not (=  x98 0)) (and (X187  x98 x97 x96 x95) (X18  r2p15 x98 x97 x96 x95)))) (X2  x98 x97 x96 x95))))
(assert (forall ((x95 Int)(x96 Int)(x97 Int)(x98 Int)(x99 Int)) (=> (X1  x99 x98 x97 x96 x95) (or (X3  x99 x98 x97 x96 x95) (X2  x98 x97 x96 x95)))))
(assert (forall ((m9 Int)(n10 Int)(r17 Int)(r28 Int)(r2p15 Int)) (=> (and (>=  r2p15 (+  1 (*  1 m9))) (and (>=  r2p15 (-  1 (*  1 m9))) (and (>=  r2p15 (+  1 (*  1 n10))) (and (>=  r2p15 (-  1 (*  1 n10))) (and (>=  r2p15 1) (X190  r2p15 n10 m9 r28 r17)))))) (X18  r2p15 n10 m9 r28 r17))))
(assert (forall ((m9 Int)(n10 Int)(r17 Int)(r28 Int)(r2p15 Int)) (=> (X2  (-  n10 1) m9 (-  r28 1) r17) (X190  r2p15 n10 m9 r28 r17))))
(assert (forall ((m9 Int)(n10 Int)(r17 Int)(r28 Int)(r2p15 Int)(r2pp17 Int)(tmp119 Int)(tmp120 Int)(x94 Int)) (=> (and (and (=  tmp119 (-  n10 1)) (=  tmp120 (-  r28 1))) (and (X188  x94 r2p15 n10 m9 r28 r17) (X32  r2pp17 x94 r2p15 n10 m9 r28 r17))) (or (X1  x94 tmp119 m9 tmp120 r17) (X190  r2p15 n10 m9 r28 r17)))))
(assert (forall ((m9 Int)(n10 Int)(r16 Int)(r17 Int)(r28 Int)(r2p15 Int)(r2pp17 Int)) (=> (and (>=  r2pp17 (+  1 m9)) (and (>=  r2pp17 (-  1 m9)) (and (>=  r2pp17 (+  1 n10)) (and (>=  r2pp17 (-  1 n10)) (and (>=  r2pp17 (+  1 r16)) (and (>=  r2pp17 (-  1 r16)) (and (>=  r2pp17 1) (X189  r2pp17 r16 r2p15 n10 m9 r28 r17)))))))) (X32  r2pp17 r16 r2p15 n10 m9 r28 r17))))
(assert (forall ((m9 Int)(n10 Int)(r16 Int)(r17 Int)(r28 Int)(r2p15 Int)(r2pp17 Int)) (=> (X2  r16 (-  m9 1) r2pp17 (-  r17 1)) (X189  r2pp17 r16 r2p15 n10 m9 r28 r17))))
(assert (forall ((m9 Int)(n10 Int)(r16 Int)(r17 Int)(r28 Int)(r2p15 Int)(r2pp17 Int)(tmp121 Int)(tmp122 Int)(x93 Int)) (=> (and (and (=  tmp121 (-  m9 1)) (=  tmp122 (-  r17 1))) (X3  x93 n10 m9 r28 r17)) (or (X1  x93 r16 tmp121 r2pp17 tmp122) (X189  r2pp17 r16 r2p15 n10 m9 r28 r17)))))
(assert (forall ((m9 Int)(n10 Int)(r16 Int)(r17 Int)(r28 Int)(r2p15 Int)) (=> (X2  r16 (-  m9 1) (-  r28 1) r17) (X188  r16 r2p15 n10 m9 r28 r17))))
(assert (forall ((m9 Int)(n10 Int)(r16 Int)(r17 Int)(r28 Int)(r2p15 Int)(tmp123 Int)(tmp124 Int)(x92 Int)) (=> (and (and (=  tmp123 (-  m9 1)) (=  tmp124 (-  r28 1))) (X3  x92 n10 m9 r28 r17)) (or (X1  x92 r16 tmp123 tmp124 r17) (X188  r16 r2p15 n10 m9 r28 r17)))))
(assert (forall ((m9 Int)(n10 Int)(r17 Int)(r28 Int)) (=> (X2  (-  n10 1) m9 (-  r28 1) r17) (X187  n10 m9 r28 r17))))
(assert (forall ((m9 Int)(n10 Int)(r17 Int)(r28 Int)(r2pp14 Int)(tmp125 Int)(tmp126 Int)(x91 Int)) (=> (and (and (=  tmp125 (-  n10 1)) (=  tmp126 (-  r28 1))) (and (X185  x91 n10 m9 r28 r17) (X72  r2pp14 x91 n10 m9 r28 r17))) (or (X1  x91 tmp125 m9 tmp126 r17) (X187  n10 m9 r28 r17)))))
(assert (forall ((m9 Int)(n10 Int)(r13 Int)(r17 Int)(r28 Int)(r2pp14 Int)) (=> (and (>=  r2pp14 (+  1 m9)) (and (>=  r2pp14 (-  1 m9)) (and (>=  r2pp14 (+  1 n10)) (and (>=  r2pp14 (-  1 n10)) (and (>=  r2pp14 (+  1 r13)) (and (>=  r2pp14 (-  1 r13)) (and (>=  r2pp14 1) (X186  r2pp14 r13 n10 m9 r28 r17)))))))) (X72  r2pp14 r13 n10 m9 r28 r17))))
(assert (forall ((m9 Int)(n10 Int)(r13 Int)(r17 Int)(r28 Int)(r2pp14 Int)) (=> (X2  r13 (-  m9 1) r2pp14 (-  r17 1)) (X186  r2pp14 r13 n10 m9 r28 r17))))
(assert (forall ((m9 Int)(n10 Int)(r13 Int)(r17 Int)(r28 Int)(r2pp14 Int)(tmp127 Int)(tmp128 Int)(x90 Int)) (=> (and (and (=  tmp127 (-  m9 1)) (=  tmp128 (-  r17 1))) (X3  x90 n10 m9 r28 r17)) (or (X1  x90 r13 tmp127 r2pp14 tmp128) (X186  r2pp14 r13 n10 m9 r28 r17)))))
(assert (forall ((m9 Int)(n10 Int)(r13 Int)(r17 Int)(r28 Int)) (=> (X2  r13 (-  m9 1) (-  r28 1) r17) (X185  r13 n10 m9 r28 r17))))
(assert (forall ((m9 Int)(n10 Int)(r13 Int)(r17 Int)(r28 Int)(tmp129 Int)(tmp130 Int)(x89 Int)) (=> (and (and (=  tmp129 (-  m9 1)) (=  tmp130 (-  r28 1))) (X3  x89 n10 m9 r28 r17)) (or (X1  x89 r13 tmp129 tmp130 r17) (X185  r13 n10 m9 r28 r17)))))
(assert (forall ((m9 Int)(n10 Int)(r17 Int)(r28 Int)(r2p12 Int)) (=> (and (>=  r2p12 (+  1 (*  1 m9))) (and (>=  r2p12 (-  1 (*  1 m9))) (and (>=  r2p12 (+  1 (*  1 n10))) (and (>=  r2p12 (-  1 (*  1 n10))) (and (>=  r2p12 1) (X184  r2p12 n10 m9 r28 r17)))))) (X115  r2p12 n10 m9 r28 r17))))
(assert (forall ((m9 Int)(n10 Int)(r17 Int)(r28 Int)(r2p12 Int)) (=> (X2  1 (-  m9 1) r2p12 (-  r17 1)) (X184  r2p12 n10 m9 r28 r17))))
(assert (forall ((m9 Int)(n10 Int)(r17 Int)(r28 Int)(r2p12 Int)(tmp131 Int)(tmp132 Int)(tmp133 Int)(x88 Int)) (=> (and (and (and (=  tmp131 1) (=  tmp132 (-  m9 1))) (=  tmp133 (-  r17 1))) (X3  x88 n10 m9 r28 r17)) (or (X1  x88 tmp131 tmp132 r2p12 tmp133) (X184  r2p12 n10 m9 r28 r17)))))
(assert (forall ((m9 Int)(n10 Int)(r17 Int)(r28 Int)) (=> (X2  1 (-  m9 1) (-  r28 1) r17) (X183  n10 m9 r28 r17))))
(assert (forall ((m9 Int)(n10 Int)(r17 Int)(r28 Int)(tmp134 Int)(tmp135 Int)(tmp136 Int)(x87 Int)) (=> (and (and (and (=  tmp134 1) (=  tmp135 (-  m9 1))) (=  tmp136 (-  r28 1))) (X3  x87 n10 m9 r28 r17)) (or (X1  x87 tmp134 tmp135 tmp136 r17) (X183  n10 m9 r28 r17)))))
(assert (forall ((m2 Int)) (=> (X147  m2) X146)))
(assert (forall ((m2 Int)(n3 Int)) (=> (X148  n3 m2) (X147  m2))))
(assert (forall ((m2 Int)(n3 Int)(r14 Int)) (=> (and (>  n3 0) (and (>  m2 0) (X153  r14 n3 m2))) (X148  n3 m2))))
(assert (forall ((m2 Int)(n3 Int)(r14 Int)(r25 Int)) (=> (X154  r25 r14 n3 m2) (X153  r14 n3 m2))))
(assert (forall ((m2 Int)(n3 Int)(r14 Int)(r25 Int)) (=> (and (>=  r14 (+  1 (*  1 n3))) (and (>=  r14 (+  1 (*  (-  0 1) n3))) (and (>=  r14 (+  1 (*  1 m2))) (and (>=  r14 (+  1 (*  (-  0 1) m2))) (and (>=  r14 1) (and (>=  r25 (+  1 (*  1 n3))) (and (>=  r25 (+  1 (*  (-  0 1) n3))) (and (>=  r25 (+  1 (*  1 m2))) (and (>=  r25 (+  1 (*  (-  0 1) m2))) (and (>=  r25 1) (X182  r25 r14 n3 m2))))))))))) (X154  r25 r14 n3 m2))))
(assert (forall ((m2 Int)(n3 Int)(r14 Int)(r25 Int)) (=> (X2  n3 m2 r25 r14) (X182  r25 r14 n3 m2))))
(assert (forall ((m2 Int)(n3 Int)(r14 Int)(r25 Int)(x86 Int)) (=> false (or (X1  x86 n3 m2 r25 r14) (X182  r25 r14 n3 m2)))))
(assert (=> X146 false))
(check-sat)
    